local_stuff/sygus_stuff/sygus_inv_oai/sygus_cvc5/cvc_output_2_5min/115_conf1.out
STDOUT:
(
(define-fun inv-f ((conf_0 Int) (sn Int) (x Int) (tmp Int) (conf_0_0 Int) (conf_0_1 Int) (conf_0_2 Int) (conf_0_3 Int) (sn_0 Int) (sn_1 Int) (sn_2 Int) (sn_3 Int) (x_0 Int) (x_1 Int) (x_2 Int) (x_3 Int)) Bool (and (= sn x) (or (not (= conf_0 conf_0_1)) (not (= x x_2)) (= sn_2 (- 1)) (= sn_2 x_2) (not (= x sn_2)))))
)
